12 48 3 10
12 3 16 19 4 12 16 17 15 11 16 9 15 18 15 8 4 14 10 6 9 7 1 3 7 6 14 18 20 15 1 14 13 13 6 10 3 12 10 1 2 7 1 8 15 14 18 18 
7.42 1.3 6.72 7.53 0.56 7.41 4.12 3.92 7.43 0.73 4.51 6.74 1.54 4.41 2.79 2.59 6.93 2.93 3.45 4.5 3.21 1.04 3.8 4.01 2.07 7.52 3.91 6.76 3.94 4.06 2.34 7.46 3.86 2.5 2.68 5.9 3.26 4.2 3.89 5.4 0.12 1.12 3.64 5.64 7.04 1.38 5.76 1.97 
5.49 6.18 2.1 5.54 0.14 4.95 1.41 4.6 3.14 5.8 1.51 5.92 1.59 4.04 3.4 2.86 2.32 1.8 1.32 1.26 7.34 2.43 0.53 1.27 4.94 3.18 0.77 7.11 3.46 7.25 3.12 3.62 2.75 4.76 2.61 6.53 4.36 6.22 6.43 2.28 5.03 1.57 2.34 0.98 5.33 2.13 3.53 7.34 
7.99 2.38 3.85 7.12 3.62 5.39 5.9 5.31 6.24 7.34 7.83 0.08 2.29 7.8 5.02 5.29 6.94 0.86 2.66 2.71 5.59 3.95 1.03 0.83 4.68 5.54 7.63 7.62 0.51 5.4 0.53 5.86 2.36 3.3 4.56 6.66 7.22 3.56 6.23 3.21 2.99 6.57 7.21 4.96 7.58 3.81 0.07 0.59 
4 4 4 4 4 4 4 4 4 4 4 4 4 4 4 4 4 4 4 4 4 4 4 4 4 4 4 4 4 4 4 4 4 4 4 4 4 4 4 4 4 4 4 4 4 4 4 4 
1.81 6.14 6.68 0.94 3.66 3.88 2.33 1.88 1.62 4.81 1.77 1.19 6.71 3.48 7.23 4.03 7.6 0.85 3.18 2.62 1.87 1.06 6.28 7.32 0.07 5.84 0.07 5.75 4.35 4.51 4.57 5.64 1.75 1 6.39 5.68 4.92 6.62 3.11 2.7 7.59 6.13 4.61 5.66 1.65 2.08 6.95 7.07 
3.75 7.39 3.33 3.42 3.94 1.58 4.84 5.5 7.41 7.86 5.01 5.83 2.19 2.11 2.22 3.51 7.97 5.84 4.44 0.59 3.08 2.64 4.35 5.15 4.82 3.58 3.85 5.19 4.45 1.03 4.95 7.09 4.93 6.88 1.58 5.86 2.65 4.71 0.05 3.2 1.46 7.39 3.21 0.57 1.04 0.63 6.78 4.18 
5.12 1.97 3.1 0.31 2.99 5.61 7.94 6.4 2.04 0.12 4.87 3.28 2.98 6.92 1.47 1.21 2.5 1.76 2.19 2.66 5.51 2.53 7.74 6.43 3.76 3.79 7.62 0.36 3.53 2.91 0.12 4.38 5.22 2.08 6.29 2.25 5.36 2.41 4.39 1.22 0.45 1.57 4.29 0.7 0.89 7.12 4.52 0.94 
2.35 5.41 5.89 1.03 7.54 4.89 2.42 4.89 1.36 4.48 3.35 4.37 0.63 5.51 4.95 6.31 6.25 6.1 4.24 3.1 5.66 2.17 1.53 3.65 2.5 4.74 4.97 1.45 2.95 2.9 7.86 5.37 5.35 1.56 1.46 5.07 2.73 5.54 1.87 3.67 1.34 4.21 4.05 6.45 2.33 5.47 0.27 0.37 
7.66 2.44 0.27 5.73 1.1 2.72 6.03 0.37 1.87 5.71 4.88 7.16 2.11 4.44 3.9 5.34 3.91 3.38 1.13 5.14 3.97 4.8 0.28 3.33 7.94 6.81 5.1 3.99 3.2 7.91 4.71 3.89 0.24 7.89 0.19 7.83 2.3 3.11 5.75 1.06 4.76 7.66 3.83 0.63 7.25 6.88 0.07 4.95 
7.77 7.7 4.43 4.38 1.84 7.44 1.5 3.2 0.18 7.2 5.84 6.69 4.28 6.62 5.05 2.3 1.22 6.17 4.36 1.44 5.3 3.39 1.05 2.83 0.56 4.74 7.69 6.93 0.14 7.76 7.49 1.73 7.94 1.48 6.88 3.1 1.09 2.74 3.07 4.32 3.08 5.96 6 5.24 3.36 0.37 4.55 4.55 
3.12 3.41 6.3 2.29 3.29 1.19 5.25 2.93 0.35 7.5 4.39 2.1 7.79 6.84 4.12 4.42 3.63 4.69 6.36 1.19 1.59 5.71 0.19 7.31 5.64 4.7 2.9 6.4 1.46 5.35 1.13 5.66 2.7 7.37 4.08 0.6 3.71 1.42 0.22 1.91 0.15 2.87 6.18 3.37 0.89 3.81 3.01 3.11 
3.35 5.72 7.59 7.53 1.57 6.69 0.45 6.76 6.39 6.42 3.18 2.23 6.54 5.34 3.3 2.57 3.39 2.27 4.05 5.33 0.25 1.19 0.01 2.75 3.87 7.81 0.24 4.97 4.62 7.62 7.04 5.19 3.95 5.63 5.37 6.26 5.17 4.39 0.47 0.97 5.73 6.04 2.26 7.33 2 1.7 7.84 5.34 
1 1 1 1 1 1 1 1 1 1 1 1 1 1 1 1 1 1 1 1 1 1 1 1 1 1 1 1 1 1 1 1 1 1 1 1 1 1 1 1 1 1 1 1 1 1 1 1 
1 1 1 1 1 1 1 1 1 1 1 1 1 1 1 1 1 1 1 1 1 1 1 1 1 1 1 1 1 1 1 1 1 1 1 1 1 1 1 1 1 1 1 1 1 1 1 1 
1 1 1 1 1 1 1 1 1 1 1 1 1 1 1 1 1 1 1 1 1 1 1 1 1 1 1 1 1 1 1 1 1 1 1 1 1 1 1 1 1 1 1 1 1 1 1 1 
1 1 1 1 1 1 1 1 1 1 1 1 1 1 1 1 1 1 1 1 1 1 1 1 1 1 1 1 1 1 1 1 1 1 1 1 1 1 1 1 1 1 1 1 1 1 1 1 
1 1 1 1 1 1 1 1 1 1 1 1 1 1 1 1 1 1 1 1 1 1 1 1 1 1 1 1 1 1 1 1 1 1 1 1 1 1 1 1 1 1 1 1 1 1 1 1 
1 1 1 1 1 1 1 1 1 1 1 1 1 1 1 1 1 1 1 1 1 1 1 1 1 1 1 1 1 1 1 1 1 1 1 1 1 1 1 1 1 1 1 1 1 1 1 1 
1 1 1 1 1 1 1 1 1 1 1 1 1 1 1 1 1 1 1 1 1 1 1 1 1 1 1 1 1 1 1 1 1 1 1 1 1 1 1 1 1 1 1 1 1 1 1 1 
1 1 1 1 1 1 1 1 1 1 1 1 1 1 1 1 1 1 1 1 1 1 1 1 1 1 1 1 1 1 1 1 1 1 1 1 1 1 1 1 1 1 1 1 1 1 1 1 
1 1 1 1 1 1 1 1 1 1 1 1 1 1 1 1 1 1 1 1 1 1 1 1 1 1 1 1 1 1 1 1 1 1 1 1 1 1 1 1 1 1 1 1 1 1 1 1 
1 1 1 1 1 1 1 1 1 1 1 1 1 1 1 1 1 1 1 1 1 1 1 1 1 1 1 1 1 1 1 1 1 1 1 1 1 1 1 1 1 1 1 1 1 1 1 1 
1 1 1 1 1 1 1 1 1 1 1 1 1 1 1 1 1 1 1 1 1 1 1 1 1 1 1 1 1 1 1 1 1 1 1 1 1 1 1 1 1 1 1 1 1 1 1 1 
1 1 1 1 1 1 1 1 1 1 1 1 1 1 1 1 1 1 1 1 1 1 1 1 1 1 1 1 1 1 1 1 1 1 1 1 1 1 1 1 1 1 1 1 1 1 1 1 
0.01 0.01 0.01 0.01 0.01 0.01 0.01 0.01 0.01 0.01 0.01 0.01 0.01 0.01 0.01 0.01 0.01 0.01 0.01 0.01 0.01 0.01 0.01 0.01 0.01 0.01 0.01 0.01 0.01 0.01 0.01 0.01 0.01 0.01 0.01 0.01 0.01 0.01 0.01 0.01 0.01 0.01 0.01 0.01 0.01 0.01 0.01 0.01 
0.02 0.02 0.02 0.02 0.02 0.02 0.02 0.02 0.02 0.02 0.02 0.02 0.02 0.02 0.02 0.02 0.02 0.02 0.02 0.02 0.02 0.02 0.02 0.02 0.02 0.02 0.02 0.02 0.02 0.02 0.02 0.02 0.02 0.02 0.02 0.02 0.02 0.02 0.02 0.02 0.02 0.02 0.02 0.02 0.02 0.02 0.02 0.02 
0.03 0.03 0.03 0.03 0.03 0.03 0.03 0.03 0.03 0.03 0.03 0.03 0.03 0.03 0.03 0.03 0.03 0.03 0.03 0.03 0.03 0.03 0.03 0.03 0.03 0.03 0.03 0.03 0.03 0.03 0.03 0.03 0.03 0.03 0.03 0.03 0.03 0.03 0.03 0.03 0.03 0.03 0.03 0.03 0.03 0.03 0.03 0.03 
0.04 0.04 0.04 0.04 0.04 0.04 0.04 0.04 0.04 0.04 0.04 0.04 0.04 0.04 0.04 0.04 0.04 0.04 0.04 0.04 0.04 0.04 0.04 0.04 0.04 0.04 0.04 0.04 0.04 0.04 0.04 0.04 0.04 0.04 0.04 0.04 0.04 0.04 0.04 0.04 0.04 0.04 0.04 0.04 0.04 0.04 0.04 0.04 
0.125 0.125 0.125 0.125 0.125 0.125 0.125 0.125 0.125 0.125 0.125 0.125 0.125 0.125 0.125 0.125 0.125 0.125 0.125 0.125 0.125 0.125 0.125 0.125 0.125 0.125 0.125 0.125 0.125 0.125 0.125 0.125 0.125 0.125 0.125 0.125 0.125 0.125 0.125 0.125 0.125 0.125 0.125 0.125 0.125 0.125 0.125 0.125 
0.25 0.25 0.25 0.25 0.25 0.25 0.25 0.25 0.25 0.25 0.25 0.25 0.25 0.25 0.25 0.25 0.25 0.25 0.25 0.25 0.25 0.25 0.25 0.25 0.25 0.25 0.25 0.25 0.25 0.25 0.25 0.25 0.25 0.25 0.25 0.25 0.25 0.25 0.25 0.25 0.25 0.25 0.25 0.25 0.25 0.25 0.25 0.25 
0.375 0.375 0.375 0.375 0.375 0.375 0.375 0.375 0.375 0.375 0.375 0.375 0.375 0.375 0.375 0.375 0.375 0.375 0.375 0.375 0.375 0.375 0.375 0.375 0.375 0.375 0.375 0.375 0.375 0.375 0.375 0.375 0.375 0.375 0.375 0.375 0.375 0.375 0.375 0.375 0.375 0.375 0.375 0.375 0.375 0.375 0.375 0.375 
0.5 0.5 0.5 0.5 0.5 0.5 0.5 0.5 0.5 0.5 0.5 0.5 0.5 0.5 0.5 0.5 0.5 0.5 0.5 0.5 0.5 0.5 0.5 0.5 0.5 0.5 0.5 0.5 0.5 0.5 0.5 0.5 0.5 0.5 0.5 0.5 0.5 0.5 0.5 0.5 0.5 0.5 0.5 0.5 0.5 0.5 0.5 0.5 
0.625 0.625 0.625 0.625 0.625 0.625 0.625 0.625 0.625 0.625 0.625 0.625 0.625 0.625 0.625 0.625 0.625 0.625 0.625 0.625 0.625 0.625 0.625 0.625 0.625 0.625 0.625 0.625 0.625 0.625 0.625 0.625 0.625 0.625 0.625 0.625 0.625 0.625 0.625 0.625 0.625 0.625 0.625 0.625 0.625 0.625 0.625 0.625 
0.75 0.75 0.75 0.75 0.75 0.75 0.75 0.75 0.75 0.75 0.75 0.75 0.75 0.75 0.75 0.75 0.75 0.75 0.75 0.75 0.75 0.75 0.75 0.75 0.75 0.75 0.75 0.75 0.75 0.75 0.75 0.75 0.75 0.75 0.75 0.75 0.75 0.75 0.75 0.75 0.75 0.75 0.75 0.75 0.75 0.75 0.75 0.75 
0.875 0.875 0.875 0.875 0.875 0.875 0.875 0.875 0.875 0.875 0.875 0.875 0.875 0.875 0.875 0.875 0.875 0.875 0.875 0.875 0.875 0.875 0.875 0.875 0.875 0.875 0.875 0.875 0.875 0.875 0.875 0.875 0.875 0.875 0.875 0.875 0.875 0.875 0.875 0.875 0.875 0.875 0.875 0.875 0.875 0.875 0.875 0.875 
1 1 1 1 1 1 1 1 1 1 1 1 1 1 1 1 1 1 1 1 1 1 1 1 1 1 1 1 1 1 1 1 1 1 1 1 1 1 1 1 1 1 1 1 1 1 1 1 
